proyfinal/src/viki/013/experimentInOfficeAgust.take6.output/5ad62b07-b12b-494f-adb6-d280fc9899b9.als.dat
{'cnf.clauses': '118081',
 'cnf.totvars': '69608',
 'conflict literals': '33',
 'conflicts': '13',
 'decisions': '4465',
 'memused.mb': '16.10',
 'outcome': 'UNSAT',
 'propagations': '31279',
 'restarts': '1',
 'solver.msecs': 26,
 'task.msecs': 116}
