proyfinal/src/viki/013/experimentInOfficeAgust.take6.output/5ad62b07-b12b-494f-adb6-d280fc9899b9.als.out
Reading from standard input... Use '--help' for help.
============================[ Problem Statistics ]=============================
|                                                                             |
|  Number of variables:         69608                                         |
|  Number of clauses:          118081                                         |
|  Parse time:                   0.02 s                                       |
|                                                                             |
============================[ Search Statistics ]==============================
| Conflicts |          ORIGINAL         |          LEARNT          | Progress |
|           |    Vars  Clauses Literals |    Limit  Clauses Lit/Cl |          |
===============================================================================
===============================================================================
restarts              : 1
conflicts             : 13             (490 /sec)
decisions             : 4465           (0.00 % random) (168319 /sec)
propagations          : 31279          (1179138 /sec)
conflict literals     : 33             (0.00 % deleted)
Memory used           : 16.10 MB
CPU time              : 0.026527 s

UNSATISFIABLE
